20
2
20052
225 357
true
0.25
5 37 44 31 27 1 40 41 37 32 10 28 48 2 47 9 35 43 49 10
18 8 36 26 46 19 36 29 26 32 29 22 4 49 25 34 15 8 4 10
-41 8 19 -38 20 36 -18 35 -46 13 -82 65 -14 -18 -4 92 67 -64 84 11
0 59 86 0 -54 100 17 0 0 0 0 0 0 0 0 0 0 -88 0 0
0 -33 0 0 0 55 0 0 0 0 0 92 -82 0 0 0 -6 58 0
0 -91 0 0 -29 -12 83 0 0 0 0 81 0 0 0 0 0 0
0 0 0 0 59 0 0 0 0 0 0 5 0 0 0 57 0
0 0 0 0 0 0 0 0 0 0 0 0 0 -85 0 0
0 -84 8 0 74 0 -74 0 0 -21 0 0 0 -8 -52
0 0 7 0 0 0 -28 0 3 0 0 0 94 -52
0 0 0 0 0 0 0 0 85 0 0 0 0
0 0 0 0 0 0 0 0 -44 0 0 0
0 0 0 -68 78 -7 0 0 0 0 0
0 0 50 0 -40 0 0 0 0 0
0 -13 0 0 0 0 34 0 0
0 -88 0 0 0 0 -76 0
0 0 0 46 0 0 0
0 -95 -85 0 93 -56
0 0 0 0 0
0 0 0 82
0 -78 0
0 47
0 0 0 0 0 0 0 0 0 0 42 0 0 0 0 0 0 0 0
0 0 0 0 0 0 -48 0 0 -55 0 0 0 0 0 52 0 -17
0 0 0 0 0 0 0 0 0 70 0 0 0 0 0 0 0
0 -35 0 0 95 0 0 0 0 0 52 0 0 11 -46 0
0 0 0 0 0 0 0 0 -51 0 0 0 0 84 -20
0 0 0 91 0 0 90 0 0 -31 0 0 0 0
0 -46 0 39 0 -58 0 0 0 0 0 0 0
0 99 0 -31 -18 0 0 -70 0 0 0 -39
0 0 -16 -31 0 0 0 0 0 0 0
0 0 0 0 0 81 0 0 0 0
0 0 0 0 0 0 0 0 0
0 0 0 0 0 0 0 0
0 42 0 0 0 0 0
0 -91 52 0 0 0
0 0 0 0 -32
0 0 0 0
0 0 0
0 0
0
0 0 0 -1 35 0 -98 0 0 0 0 0 0 0 -57 0 36 0
0 -86 0 0 0 0 0 0 0 0 0 27 0 0 0 0 0
0 0 0 49 27 0 0 0 0 0 0 93 70 0 0 0
0 0 0 0 0 1 0 0 0 0 0 0 20 94 97
0 17 0 0 0 0 0 0 0 0 0 -41 -26 0
0 -6 -87 0 0 76 0 0 63 0 0 0 0
0 0 0 22 -77 0 0 0 46 0 0 0
0 0 69 0 0 0 0 0 0 0 0
0 0 0 0 94 0 15 0 0 0
0 0 0 13 0 0 0 0 0
0 -43 38 0 0 0 0 0
0 0 0 0 0 -63 0
0 5 0 0 0 0
0 0 0 0 -94
0 0 0 47
0 0 0
0 0
0
0 0 0 0 0 0 44 0 -85 -59 0 10 0 0 0 73 0
0 0 50 0 0 0 0 0 0 0 -80 0 0 0 0 0
0 0 0 0 0 0 0 -48 0 0 -40 0 -42 0 0
0 0 0 0 45 0 0 0 0 0 -57 0 0 0
0 0 -96 0 0 0 0 -93 0 0 0 -95 0
0 0 71 0 0 0 0 0 -14 0 0 36
0 0 0 0 0 0 0 -73 0 0 0
0 0 79 0 0 53 0 0 40 0
0 0 0 0 0 82 0 0 0
0 0 0 0 0 0 87 -39
0 0 -99 95 44 0 0
0 77 -81 0 70 0
0 0 0 -41 0
0 0 0 0
0 0 0
0 0
0
0 0 0 -2 98 0 0 -13 0 81 56 0 0 0 0 0
0 0 0 -85 0 55 -27 69 0 0 0 0 0 0 0
0 0 0 0 0 0 0 0 0 0 10 29 0 0
0 0 0 0 0 -100 -29 -94 0 0 0 0 0
0 0 0 0 50 0 0 0 73 0 0 0
0 -92 0 0 -6 -48 61 0 -39 -33 0
0 0 0 0 0 0 7 -34 0 0
0 9 0 47 38 0 0 0 0
0 0 -21 90 0 12 89 0
0 0 0 80 0 74 0
0 -47 -98 0 0 -49
0 20 0 0 0
0 0 0 0
0 0 -85
0 0
0
0 0 0 0 0 0 0 0 38 0 0 -62 0 0 0
0 -50 0 0 0 0 -83 0 0 0 0 -89 0 0
0 0 0 0 0 0 0 0 28 0 0 0 0
0 0 0 0 0 0 0 0 0 0 80 0
0 49 0 67 0 0 0 -76 75 0 0
0 0 0 0 0 0 0 0 0 0
0 0 0 0 0 0 0 0 0
0 0 0 0 27 8 0 0
0 0 0 -78 0 0 0
0 -95 -49 0 0 26
0 0 -87 0 0
0 0 99 0
0 -76 0
0 11
0
0 0 0 0 0 0 -44 0 0 -59 98 0 7 -35
0 0 0 81 0 0 0 0 0 -48 0 -63 24
0 0 11 0 -38 0 -89 0 0 0 -52 0
0 0 0 0 -13 0 0 -54 0 0 0
0 0 0 0 0 -80 -13 0 0 0
0 0 0 0 0 0 34 0 73
0 0 0 0 0 0 0 89
0 0 80 0 0 -75 0
0 0 0 0 49 0
0 -85 0 7 0
0 0 0 0
0 0 0
0 0
0
0 0 0 0 0 0 0 0 0 0 0 0 0
0 0 0 0 0 0 0 0 0 -68 0 0
0 -20 -20 0 0 0 0 0 90 -5 0
0 0 0 0 0 0 0 0 0 0
0 0 0 0 0 0 0 -33 -25
0 0 0 0 0 0 0 0
0 0 0 -11 -10 0 91
0 2 48 0 70 0
0 0 38 0 0
0 0 0 0
0 0 -82
0 0
0
0 0 0 0 -94 0 0 29 0 0 0 94
0 0 0 0 0 -78 55 0 16 -42 36
0 0 0 0 0 0 0 0 0 0
0 -86 0 0 0 0 -73 0 0
0 0 0 4 0 0 0 0
0 33 0 -2 0 0 0
0 77 0 0 0 0
0 16 0 66 0
0 0 0 0
0 0 0
0 0
0
0 0 69 57 0 0 0 0 15 0 0
0 0 0 -1 0 63 68 0 -61 0
0 -35 0 34 0 0 -16 24 -92
0 0 0 0 0 0 0 0
0 0 5 -42 0 0 0
0 86 0 0 0 0
0 4 0 0 18
0 0 0 80
0 -15 0
0 0
0
0 0 0 -82 0 0 0 0 10 0
0 0 0 0 0 -48 0 -46 0
0 0 0 0 0 0 65 0
0 0 50 0 30 0 -15
0 42 -58 0 0 0
0 0 0 0 0
0 53 0 72
0 0 0
0 2
0
0 0 0 0 0 0 0 49 0
0 0 0 0 0 0 0 21
0 0 -40 0 0 0 0
0 0 -26 0 0 0
0 -39 0 0 0
0 0 91 0
0 0 0
0 0
0
0 0 0 0 0 0 -64 0
0 15 0 0 0 11 0
0 0 0 0 -71 0
0 20 0 77 0
0 0 0 0
0 50 31
0 0
0
0 0 47 40 0 0 6
0 0 0 0 0 0
0 0 90 0 0
0 0 95 0
0 0 -61
0 -95
0
0 0 0 0 0 0
0 0 0 0 0
0 2 -15 0
0 -35 31
0 0
0
0 0 0 0 0
0 0 70 0
0 58 0
0 0
0
0 0 57 0
0 0 0
0 0
0
0 0 0
0 0
0
0 0
0
0
244 568 -135 132 64 -169 -13 -264 219 229 463 -15 136 202 -182 594 517 -351 914 85
31.177777777777777 43.17567567567568 -3.409090909090909 4.667493796526054 1.8808373590982286 -88.94736842105263 -0.34305555555555556 -7.771236333052986 7.170997920997921 7.15625 31.132758620689653 -0.6087662337662337 18.416666666666668 52.56122448979592 -5.576170212765957 41.73529411764706 24.61904761904762 -26.01889534883721 123.5765306122449 8.5
